c nombre: 25
c densidad: 0.3
p edges 40 238
e 1 2
e 1 4
e 1 7
e 1 13
e 1 21
e 1 24
e 1 26
e 1 28
e 1 30
e 1 38
e 2 8
e 2 11
e 2 12
e 2 14
e 2 15
e 2 18
e 2 20
e 2 21
e 2 24
e 2 28
e 2 30
e 2 31
e 2 37
e 3 5
e 3 8
e 3 12
e 3 13
e 3 15
e 3 16
e 3 17
e 3 18
e 3 20
e 3 27
e 3 30
e 3 32
e 3 33
e 3 36
e 3 39
e 3 40
e 4 5
e 4 15
e 4 19
e 4 20
e 4 21
e 4 29
e 4 34
e 4 39
e 5 14
e 5 16
e 5 17
e 5 18
e 5 24
e 5 27
e 5 28
e 5 29
e 5 30
e 5 33
e 5 37
e 5 38
e 5 40
e 6 22
e 6 25
e 6 27
e 6 30
e 6 32
e 6 38
e 6 40
e 7 9
e 7 15
e 7 19
e 7 22
e 7 23
e 7 24
e 7 25
e 7 28
e 7 32
e 7 34
e 7 40
e 8 15
e 8 17
e 8 28
e 8 34
e 8 37
e 8 40
e 9 14
e 9 15
e 9 16
e 9 21
e 9 25
e 9 34
e 9 35
e 9 36
e 9 37
e 9 39
e 10 13
e 10 16
e 10 17
e 10 20
e 10 22
e 10 29
e 10 32
e 10 33
e 10 34
e 10 35
e 10 36
e 10 37
e 10 40
e 11 13
e 11 15
e 11 16
e 11 21
e 11 23
e 11 24
e 11 25
e 11 27
e 11 28
e 11 30
e 12 14
e 12 15
e 12 16
e 12 19
e 12 20
e 12 29
e 12 33
e 12 38
e 12 39
e 13 18
e 13 22
e 13 24
e 13 29
e 13 40
e 14 17
e 14 18
e 14 20
e 14 23
e 14 25
e 14 26
e 14 28
e 14 29
e 14 35
e 14 36
e 15 17
e 15 18
e 15 20
e 15 21
e 15 24
e 15 25
e 15 27
e 15 39
e 16 18
e 16 23
e 16 31
e 16 34
e 16 35
e 16 37
e 16 38
e 17 22
e 17 27
e 17 28
e 17 32
e 17 35
e 18 22
e 18 29
e 18 33
e 18 39
e 18 40
e 19 24
e 19 34
e 19 38
e 19 40
e 20 23
e 20 27
e 20 30
e 20 36
e 20 37
e 21 23
e 21 25
e 21 26
e 21 27
e 21 33
e 21 35
e 21 40
e 22 26
e 22 28
e 22 31
e 22 33
e 22 34
e 22 35
e 22 37
e 22 38
e 22 40
e 23 24
e 23 28
e 23 32
e 23 34
e 23 39
e 23 40
e 24 27
e 24 28
e 24 37
e 24 39
e 25 27
e 25 29
e 25 31
e 25 33
e 25 35
e 26 27
e 26 28
e 26 32
e 26 34
e 27 30
e 27 32
e 27 39
e 28 29
e 28 35
e 28 38
e 28 39
e 29 33
e 29 34
e 29 35
e 30 32
e 30 33
e 30 35
e 30 36
e 31 34
e 31 35
e 31 39
e 32 33
e 32 35
e 33 34
e 33 35
e 33 39
e 33 40
e 34 38
e 34 39
e 36 39
e 37 39
e 38 39
